Problem:    task_scheduling
Rows:       22
Columns:    13 (9 integer, 9 binary)
Non-zeros:  43
Status:     INTEGER OPTIMAL
Objective:  total_time = 9 (MINimum)

   No.   Row name        Activity     Lower bound   Upper bound
------ ------------    ------------- ------------- -------------
     1 total_time                  9                             
     2 one_earlier[tA,tA]
                                   2             1               
     3 one_earlier[tA,tB]
                                   1             1               
     4 one_earlier[tA,tC]
                                   1             1               
     5 one_earlier[tB,tA]
                                   1             1               
     6 one_earlier[tB,tB]
                                   2             1               
     7 one_earlier[tB,tC]
                                   1             1               
     8 one_earlier[tC,tA]
                                   1             1               
     9 one_earlier[tC,tB]
                                   1             1               
    10 one_earlier[tC,tC]
                                   2             1               
    11 last_one[tA]                0            -0               
    12 last_one[tB]                9            -0               
    13 last_one[tC]                5            -0               
    14 time_diff_constraint[tA,tA]
                                -100          -100               
    15 time_diff_constraint[tA,tB]
                                  -9           -90               
    16 time_diff_constraint[tA,tC]
                                  -5           -90               
    17 time_diff_constraint[tB,tA]
                                 -91           -92               
    18 time_diff_constraint[tB,tB]
                                -100          -100               
    19 time_diff_constraint[tB,tC]
                                 -96           -96               
    20 time_diff_constraint[tC,tA]
                                 -95           -95               
    21 time_diff_constraint[tC,tB]
                                  -4           -90               
    22 time_diff_constraint[tC,tC]
                                -100          -100               

   No. Column name       Activity     Lower bound   Upper bound
------ ------------    ------------- ------------- -------------
     1 scheduled_time[tA]
                                   9             0               
     2 scheduled_time[tB]
                                   0             0               
     3 scheduled_time[tC]
                                   4             0               
     4 last_time                   9                             
     5 earlier_than[tA,tA]
                    *              1             0             1 
     6 earlier_than[tA,tB]
                    *              0             0             1 
     7 earlier_than[tB,tA]
                    *              1             0             1 
     8 earlier_than[tA,tC]
                    *              0             0             1 
     9 earlier_than[tC,tA]
                    *              1             0             1 
    10 earlier_than[tB,tB]
                    *              1             0             1 
    11 earlier_than[tB,tC]
                    *              1             0             1 
    12 earlier_than[tC,tB]
                    *              0             0             1 
    13 earlier_than[tC,tC]
                    *              1             0             1 

Integer feasibility conditions:

KKT.PE: max.abs.err = 0.00e+00 on row 0
        max.rel.err = 0.00e+00 on row 0
        High quality

KKT.PB: max.abs.err = 0.00e+00 on row 0
        max.rel.err = 0.00e+00 on row 0
        High quality

End of output
